
Gurobi 6.0.4 (win64) logging started 06/20/15 18:36:03

Read LP format model from file C:\MT\repository\VRPTWMS\instances\mip\fuel\N12-C_DV100-C_SV30_F6_4_No_1.lp
Reading time = 0.02 seconds
(null): 865 rows, 404 columns, 3771 nonzeros
Optimize a model with 865 rows, 404 columns and 3771 nonzeros
Model has 1872 quadratic constraints
Coefficient statistics:
  Matrix range    [1e+00, 1e+06]
  Objective range [3e+04, 1e+07]
  Bounds range    [1e+00, 1e+06]
  RHS range       [1e+00, 1e+06]
Presolve removed 89 rows and 63 columns
Presolve time: 0.77s
Presolved: 3596 rows, 1795 columns, 18274 nonzeros
Variable types: 1366 continuous, 429 integer (366 binary)
Found heuristic solution: objective 1.254692e+08

Root relaxation: objective 8.384901e+06, 143 iterations, 0.01 seconds

    Nodes    |    Current Node    |     Objective Bounds      |     Work
 Expl Unexpl |  Obj  Depth IntInf | Incumbent    BestBd   Gap | It/Node Time

     0     0 8384900.70    0   51 1.2547e+08 8384900.70  93.3%     -    0s
H    0     0                    1.050964e+08 8384900.70  92.0%     -    0s
     0     0 1.2492e+07    0   46 1.0510e+08 1.2492e+07  88.1%     -    0s
H    0     0                    9.467310e+07 1.2492e+07  86.8%     -    0s
     0     0 1.2717e+07    0   54 9.4673e+07 1.2717e+07  86.6%     -    0s
H    0     0                    8.445490e+07 1.2717e+07  84.9%     -    0s
     0     0 1.3309e+07    0   71 8.4455e+07 1.3309e+07  84.2%     -    1s
     0     0 1.4007e+07    0   50 8.4455e+07 1.4007e+07  83.4%     -    1s
     0     0 1.4074e+07    0   57 8.4455e+07 1.4074e+07  83.3%     -    1s
H    0     0                    7.411650e+07 1.4074e+07  81.0%     -    1s
H    0     0                    5.516080e+07 1.4074e+07  74.5%     -    1s
     0     0 1.4115e+07    0   68 5.5161e+07 1.4115e+07  74.4%     -    1s
     0     0 1.4115e+07    0   67 5.5161e+07 1.4115e+07  74.4%     -    1s
H    0     0                    5.477180e+07 1.4115e+07  74.2%     -    1s
     0     0 1.4115e+07    0   67 5.4772e+07 1.4115e+07  74.2%     -    1s
     0     0 1.4115e+07    0   64 5.4772e+07 1.4115e+07  74.2%     -    1s
     0     0 1.4115e+07    0   66 5.4772e+07 1.4115e+07  74.2%     -    1s
     0     0 1.4115e+07    0   68 5.4772e+07 1.4115e+07  74.2%     -    1s
     0     0 1.4115e+07    0   68 5.4772e+07 1.4115e+07  74.2%     -    1s
     0     2 1.4115e+07    0   68 5.4772e+07 1.4115e+07  74.2%     -    1s
*   52    24              18    3.254000e+07 1.4302e+07  56.0%  24.8    1s
H  101    12                    3.245120e+07 2.2334e+07  31.2%  25.1    1s
H  136    17                    3.242750e+07 2.2448e+07  30.8%  27.1    1s

Cutting planes:
  Learned: 3
  Gomory: 2
  Cover: 101
  Implied bound: 161
  Clique: 13
  MIR: 52
  GUB cover: 9
  Zero half: 3

Explored 1170 nodes (41850 simplex iterations) in 4.36 seconds
Thread count was 2 (of 4 available processors)

Optimal solution found (tolerance 1.00e-04)
Best objective 3.242750000000e+07, best bound 3.242750000000e+07, gap 0.0%
k_c1	1000000.0
k_c10	60000.0
k_c11	910000.0
k_c12	809998.0
k_c2	970000.0
k_c3	839999.0
k_c4	40000.0
k_c5	1000000.0
k_c6	10000.0
k_c7	990000.0
k_c8	1000000.0
k_c9	950000.0
k_dN	-0.0
o_1	0.0
o_10	0.0
o_11	0.0
o_12	0.0
o_2	0.0
o_3	0.0
o_4	0.0
o_5	0.0
o_6	0.0
o_7	0.0
o_8	0.0
o_9	0.0
p_1	0.0
p_10	0.0
p_11	0.0
p_12	0.0
p_2	0.0
p_3	0.0
p_4	0.0
p_5	0.0
p_6	0.0
p_7	0.0
p_8	0.0
p_9	0.0
phi_c1	44044.0
phi_c10	6061.0
phi_c11	36749.0
phi_c12	22171.0
phi_c2	43733.0
phi_c3	24178.0
phi_c4	22083.0
phi_c5	51724.0
phi_c6	16564.0
phi_c7	38331.0
phi_c8	37508.0
phi_c9	14959.0
phi_dN	0.0
pi_c1	0.0
pi_c10	262171.0
pi_c11	262171.0
pi_c12	0.0
pi_c2	262171.0
pi_c3	262171.0
pi_c4	262171.0
pi_c5	262171.0
pi_c6	262171.0
pi_c7	262171.0
pi_c8	262171.0
pi_c9	262171.0
pi_dN	-0.0
tauD_c1	59625.0
tauD_c10	800000.0
tauD_c11	450000.0
tauD_c12	650000.0
tauD_c2	250000.0
tauD_c3	592499.0
tauD_c4	250000.0
tauD_c5	182100.0
tauD_c6	500000.0
tauD_c7	170975.0
tauD_c8	166375.0
tauD_c9	850000.0
tauD_d0	-0.0
tauD_dN	1000000.0
tauS_c1	860375.0
tauS_c10	897350.0
tauS_c11	872575.0
tauS_c12	856250.0
tauS_c2	881200.0
tauS_c3	849425.0
tauS_c4	839500.0
tauS_c5	889075.0
tauS_c6	858100.0
tauS_c7	852450.0
tauS_c8	835950.0
tauS_c9	864100.0
tauS_d0	-0.0
tauS_dN	1000000.0
x_c10_dN	1.0
x_c11_c3	1.0
x_c12_c10	1.0
x_c1_c7	1.0
x_c2_c11	1.0
x_c3_c12	1.0
x_c4_c6	1.0
x_c5_c2	1.0
x_c6_dN	1.0
x_c7_c9	1.0
x_c8_c4	1.0
x_c9_dN	1.0
x_d0_c1	1.0
x_d0_c5	1.0
x_d0_c8	1.0
